2025-09-15 04:02:44,374 | INFO | Logging to Demo5\scheduler_run.log
2025-09-15 04:02:44,375 | INFO | ===== SCHEDULER RUN 20250915_040244 =====
2025-09-15 04:02:44,376 | INFO | Args.case=C:\Users\sapper\AppData\Local\Temp\tmp17n_bzzj.json
2025-09-15 04:02:44,409 | INFO | Loaded case with 31 days, 308 shifts, 19 providers
2025-09-15 04:02:44,410 | INFO | Run config: out=Demo5 k=1 seed=1 time=1500 L=1
2025-09-15 04:02:44,432 | INFO | Wrote: Demo5\constants_effective.log
2025-09-15 04:02:44,444 | INFO | Wrote capacity snapshot: Demo5\eligibility_capacity.json
2025-09-15 04:02:44,447 | INFO | Instance: |days|=31 |shifts|=308 |providers|=19 |types|=10
2025-09-15 04:02:44,448 | INFO | Weekend names: ['Saturday', 'Sunday']
2025-09-15 04:02:44,450 | INFO | Weekend indices: [3, 4, 10, 11, 17, 18, 24, 25]
2025-09-15 04:02:44,458 | INFO | Shift[0] keys: ['id', 'date', 'type', 'start', 'end', 'allowed_provider_types']
2025-09-15 04:02:44,462 | INFO | Provider[0] keys: ['id', 'name', 'type', 'weekday_pref', 'type_pref', 'requested_off_soft', 'preferred_days_soft', 'forbidden_days_hard', 'limits', 'preferred_days_hard', 'max_consecutive_days', 'forbidden_days_soft']
2025-09-15 04:02:44,463 | INFO | Provider types: ['MD', 'MD2']
2025-09-15 04:02:45,073 | INFO | max_consecutive_days per provider (0 means no cap): [12, 6, 31, 9, 5, 10, 31, 31, 8, 31, 31, 6, 31, 7, 31, 20, 31, 8, 2]
2025-09-15 04:02:53,936 | INFO | 0
2025-09-15 04:02:53,956 | INFO | 1
2025-09-15 04:02:53,973 | INFO | 2
2025-09-15 04:02:53,987 | INFO | 3
2025-09-15 04:02:54,000 | INFO | 4
2025-09-15 04:02:54,015 | INFO | 5
2025-09-15 04:02:54,030 | INFO | 6
2025-09-15 04:02:54,041 | INFO | 7
2025-09-15 04:02:54,055 | INFO | 8
2025-09-15 04:02:54,069 | INFO | 9
2025-09-15 04:02:54,084 | INFO | 10
2025-09-15 04:02:54,100 | INFO | 11
2025-09-15 04:02:54,115 | INFO | 12
2025-09-15 04:02:54,125 | INFO | 13
2025-09-15 04:02:54,139 | INFO | 14
2025-09-15 04:02:54,152 | INFO | 15
2025-09-15 04:02:54,165 | INFO | 16
2025-09-15 04:02:54,175 | INFO | 17
2025-09-15 04:02:54,186 | INFO | 18
2025-09-15 04:02:54,249 | INFO | Phase-1 solve: time=120.0s workers=8
2025-09-15 04:02:54,519 | INFO | [phase1] 
2025-09-15 04:02:54,520 | INFO | [phase1] Starting CP-SAT solver v9.14.6206
2025-09-15 04:02:54,521 | INFO | [phase1] Parameters: max_time_in_seconds: 120 log_search_progress: true num_search_workers: 8 log_to_stdout: false
2025-09-15 04:02:54,716 | INFO | [phase1] 
2025-09-15 04:02:54,876 | INFO | [phase1] Initial optimization model '': (model_fingerprint: 0x116820da94933b9c)
#Variables: 9'877 (#ints: 1 in objective) (6'240 primary variables)
  - 7'348 Booleans in [0,1]
  - 19 in [-31,31]
  - 1'216 in [0,31]
  - 19 in [0,308]
  - 589 in [0,961]
  - 76 in [0,1000]
  - 608 in [0,29791]
  - 1 in [0,1000000000000000000]
  - 1 constants in {0} 
#kAtMostOne: 34'713 (#literals: 69'426)
#kIntProd: 1'178
#kLinMax: 38 (#expressions: 627)
#kLinear1: 4'094 (#enforced: 1'767 #multi: 570)
#kLinear2: 8'228 (#enforced: 1'159 #multi: 570)
#kLinear3: 571
#kLinearN: 976 (#terms: 26'986)
2025-09-15 04:02:54,879 | INFO | [phase1] 
2025-09-15 04:02:54,884 | INFO | [phase1] Starting presolve at 0.37s
2025-09-15 04:02:55,691 | INFO | [phase1]   2.58e-02s  0.00e+00d  [DetectDominanceRelations]
2025-09-15 04:02:55,728 | INFO | [phase1]   6.89e-01s  0.00e+00d  [operations_research::sat::CpModelPresolver::PresolveToFixPoint] #num_loops=3 #num_dual_strengthening=2
2025-09-15 04:02:55,791 | INFO | [phase1]   8.33e-03s  0.00e+00d  [operations_research::sat::CpModelPresolver::ExtractEncodingFromLinear] #potential_supersets=12'718
2025-09-15 04:02:55,881 | INFO | [phase1]   1.54e-02s  0.00e+00d  [operations_research::sat::CpModelPresolver::DetectDuplicateColumns]
2025-09-15 04:02:55,900 | INFO | [phase1]   1.81e-02s  0.00e+00d  [operations_research::sat::CpModelPresolver::DetectDuplicateConstraints] #duplicates=403
2025-09-15 04:02:56,005 | INFO | [phase1] [SAT presolve] num removable Booleans: 0 / 5020
2025-09-15 04:02:56,007 | INFO | [phase1] [SAT presolve] num trivial clauses: 0
2025-09-15 04:02:56,012 | INFO | [phase1] [SAT presolve] [0s] clauses:5867 literals:15515 vars:4712 one_side_vars:2 simple_definition:4106 singleton_clauses:0
2025-09-15 04:02:56,021 | INFO | [phase1] [SAT presolve] [0.015175s] clauses:5867 literals:15515 vars:4712 one_side_vars:2 simple_definition:4106 singleton_clauses:0
2025-09-15 04:02:56,024 | INFO | [phase1] [SAT presolve] [0.0188365s] clauses:5867 literals:15515 vars:4712 one_side_vars:2 simple_definition:4106 singleton_clauses:0
2025-09-15 04:02:56,658 | INFO | [phase1]   1.41e-02s  0.00e+00d  [operations_research::sat::CpModelPresolver::DetectDuplicateConstraintsWithDifferentEnforcements]
2025-09-15 04:02:56,660 | INFO | [phase1]   6.12e-01s  2.57e-02d  [operations_research::sat::CpModelPresolver::Probe] #probed=13'584 #new_bounds=608 #new_binary_clauses=1'758
2025-09-15 04:02:56,734 | INFO | [phase1]   7.07e-02s  4.06e-03d  [MaxClique] Merged 16'708(33'416 literals) into 2'686(10'828 literals) at_most_ones.
2025-09-15 04:02:56,941 | INFO | [phase1]   2.68e-02s  0.00e+00d  [DetectDominanceRelations]
2025-09-15 04:02:56,948 | INFO | [phase1]   2.00e-01s  0.00e+00d  [operations_research::sat::CpModelPresolver::PresolveToFixPoint] #num_loops=2 #num_dual_strengthening=1
2025-09-15 04:02:56,968 | INFO | [phase1]   1.93e-02s  0.00e+00d  [operations_research::sat::CpModelPresolver::ProcessAtMostOneAndLinear]
2025-09-15 04:02:56,984 | INFO | [phase1]   1.21e-02s  0.00e+00d  [operations_research::sat::CpModelPresolver::DetectDuplicateConstraints]
2025-09-15 04:02:56,999 | INFO | [phase1]   1.44e-02s  0.00e+00d  [operations_research::sat::CpModelPresolver::DetectDuplicateConstraintsWithDifferentEnforcements]
2025-09-15 04:02:57,003 | INFO | [phase1]   3.02e-03s  1.89e-05d  [operations_research::sat::CpModelPresolver::DetectDominatedLinearConstraints] #relevant_constraints=58
2025-09-15 04:02:57,010 | INFO | [phase1]   4.03e-03s  0.00e+00d  [operations_research::sat::CpModelPresolver::DetectDifferentVariables]
2025-09-15 04:02:57,030 | INFO | [phase1]   1.93e-02s  3.43e-04d  [operations_research::sat::CpModelPresolver::ProcessSetPPC] #relevant_constraints=4'264 #num_inclusions=2'981
2025-09-15 04:02:57,035 | INFO | [phase1]   2.98e-03s  0.00e+00d  [operations_research::sat::CpModelPresolver::FindAlmostIdenticalLinearConstraints]
2025-09-15 04:02:57,124 | INFO | [phase1]   7.75e-02s  1.11e-02d  [operations_research::sat::CpModelPresolver::FindBigAtMostOneAndLinearOverlap]
2025-09-15 04:02:57,143 | INFO | [phase1]   1.77e-02s  5.35e-03d  [operations_research::sat::CpModelPresolver::FindBigVerticalLinearOverlap]
2025-09-15 04:02:57,155 | INFO | [phase1]   1.17e-02s  5.15e-04d  [operations_research::sat::CpModelPresolver::FindBigHorizontalLinearOverlap] #blocks=9 #saved_nz=1'545 #linears=47
2025-09-15 04:02:57,162 | INFO | [phase1]   4.99e-03s  1.55e-05d  [operations_research::sat::CpModelPresolver::MergeClauses]
2025-09-15 04:02:57,269 | INFO | [phase1]   1.45e-02s  0.00e+00d  [DetectDominanceRelations]
2025-09-15 04:02:57,273 | INFO | [phase1]   1.02e-01s  0.00e+00d  [operations_research::sat::CpModelPresolver::PresolveToFixPoint] #num_loops=3 #num_dual_strengthening=2
2025-09-15 04:02:57,498 | INFO | [phase1]   4.99e-02s  0.00e+00d  [DetectDominanceRelations]
2025-09-15 04:02:57,539 | INFO | [phase1]   2.65e-01s  0.00e+00d  [operations_research::sat::CpModelPresolver::PresolveToFixPoint] #num_loops=1 #num_dual_strengthening=1
2025-09-15 04:02:57,616 | INFO | [phase1]   7.07e-03s  0.00e+00d  [operations_research::sat::CpModelPresolver::DetectDuplicateColumns]
2025-09-15 04:02:57,674 | INFO | [phase1]   4.79e-02s  0.00e+00d  [operations_research::sat::CpModelPresolver::DetectDuplicateConstraints]
2025-09-15 04:02:57,714 | INFO | [phase1] [SAT presolve] num removable Booleans: 57 / 4769
2025-09-15 04:02:57,715 | INFO | [phase1] [SAT presolve] num trivial clauses: 0
2025-09-15 04:02:57,717 | INFO | [phase1] [SAT presolve] [0s] clauses:2054 literals:5548 vars:1949 one_side_vars:723 simple_definition:599 singleton_clauses:0
2025-09-15 04:02:57,722 | INFO | [phase1] [SAT presolve] [0.0077038s] clauses:2016 literals:5396 vars:1949 one_side_vars:723 simple_definition:637 singleton_clauses:0
2025-09-15 04:02:57,724 | INFO | [phase1] [SAT presolve] [0.0102182s] clauses:1902 literals:5168 vars:1892 one_side_vars:723 simple_definition:618 singleton_clauses:0
2025-09-15 04:02:58,139 | INFO | [phase1]   1.10e-02s  0.00e+00d  [operations_research::sat::CpModelPresolver::DetectDuplicateConstraintsWithDifferentEnforcements]
2025-09-15 04:02:58,139 | INFO | [phase1]   4.09e-01s  2.09e-02d  [operations_research::sat::CpModelPresolver::Probe] #probed=13'660 #new_bounds=1'653 #new_binary_clauses=1'720
2025-09-15 04:02:58,163 | INFO | [phase1]   2.08e-02s  2.64e-03d  [MaxClique]
2025-09-15 04:02:58,281 | INFO | [phase1]   1.26e-02s  0.00e+00d  [DetectDominanceRelations]
2025-09-15 04:02:58,286 | INFO | [phase1]   1.15e-01s  0.00e+00d  [operations_research::sat::CpModelPresolver::PresolveToFixPoint] #num_loops=2 #num_dual_strengthening=1
2025-09-15 04:02:58,297 | INFO | [phase1]   1.06e-02s  0.00e+00d  [operations_research::sat::CpModelPresolver::ProcessAtMostOneAndLinear]
2025-09-15 04:02:58,310 | INFO | [phase1]   1.18e-02s  0.00e+00d  [operations_research::sat::CpModelPresolver::DetectDuplicateConstraints]
2025-09-15 04:02:58,323 | INFO | [phase1]   1.23e-02s  0.00e+00d  [operations_research::sat::CpModelPresolver::DetectDuplicateConstraintsWithDifferentEnforcements]
2025-09-15 04:02:58,327 | INFO | [phase1]   3.16e-03s  1.26e-05d  [operations_research::sat::CpModelPresolver::DetectDominatedLinearConstraints] #relevant_constraints=67
2025-09-15 04:02:58,332 | INFO | [phase1]   2.98e-03s  0.00e+00d  [operations_research::sat::CpModelPresolver::DetectDifferentVariables]
2025-09-15 04:02:58,348 | INFO | [phase1]   1.38e-02s  2.49e-04d  [operations_research::sat::CpModelPresolver::ProcessSetPPC] #relevant_constraints=3'770 #num_inclusions=2'277
2025-09-15 04:02:58,354 | INFO | [phase1]   4.84e-03s  0.00e+00d  [operations_research::sat::CpModelPresolver::FindAlmostIdenticalLinearConstraints]
2025-09-15 04:02:58,412 | INFO | [phase1]   5.09e-02s  8.15e-03d  [operations_research::sat::CpModelPresolver::FindBigAtMostOneAndLinearOverlap]
2025-09-15 04:02:58,426 | INFO | [phase1]   1.39e-02s  3.86e-03d  [operations_research::sat::CpModelPresolver::FindBigVerticalLinearOverlap]
2025-09-15 04:02:58,431 | INFO | [phase1]   4.48e-03s  6.80e-04d  [operations_research::sat::CpModelPresolver::FindBigHorizontalLinearOverlap] #linears=38
2025-09-15 04:02:58,438 | INFO | [phase1]   5.31e-03s  1.44e-05d  [operations_research::sat::CpModelPresolver::MergeClauses]
2025-09-15 04:02:58,539 | INFO | [phase1]   1.57e-02s  0.00e+00d  [DetectDominanceRelations]
2025-09-15 04:02:58,543 | INFO | [phase1]   9.99e-02s  0.00e+00d  [operations_research::sat::CpModelPresolver::PresolveToFixPoint] #num_loops=1 #num_dual_strengthening=1
2025-09-15 04:02:58,564 | INFO | [phase1]   1.70e-02s  0.00e+00d  [operations_research::sat::CpModelPresolver::ExpandObjective] #entries=24'030 #tight_variables=3'244 #tight_constraints=418 #expands=285
2025-09-15 04:02:58,655 | INFO | [phase1] 
2025-09-15 04:02:58,659 | INFO | [phase1] Presolve summary:
2025-09-15 04:02:58,662 | INFO | [phase1]   - 62 affine relations were detected.
2025-09-15 04:02:58,699 | INFO | [phase1]   - rule 'TODO dual: only one blocking constraint?' was applied 9'124 times.
2025-09-15 04:02:58,711 | INFO | [phase1]   - rule 'TODO dual: only one unspecified blocking constraint?' was applied 240 times.
2025-09-15 04:02:58,749 | INFO | [phase1]   - rule 'TODO duplicate: duplicate columns in Boolean constraints' was applied 4 times.
2025-09-15 04:02:58,757 | INFO | [phase1]   - rule 'TODO linear2: contains a Boolean.' was applied 9'402 times.
2025-09-15 04:02:58,790 | INFO | [phase1]   - rule 'affine: new relation' was applied 62 times.
2025-09-15 04:02:58,807 | INFO | [phase1]   - rule 'at_most_one: empty or all false' was applied 5'377 times.
2025-09-15 04:02:58,825 | INFO | [phase1]   - rule 'at_most_one: removed literals' was applied 22'303 times.
2025-09-15 04:02:58,858 | INFO | [phase1]   - rule 'at_most_one: size one' was applied 16'926 times.
2025-09-15 04:02:58,880 | INFO | [phase1]   - rule 'at_most_one: transformed into max clique.' was applied 1 time.
2025-09-15 04:02:58,904 | INFO | [phase1]   - rule 'bool_and: x => x' was applied 19 times.
2025-09-15 04:02:58,906 | INFO | [phase1]   - rule 'bool_or: implications' was applied 4'701 times.
2025-09-15 04:02:58,910 | INFO | [phase1]   - rule 'bool_or: removed enforcement literal' was applied 76 times.
2025-09-15 04:02:58,914 | INFO | [phase1]   - rule 'deductions: 1824 stored' was applied 1 time.
2025-09-15 04:02:58,916 | INFO | [phase1]   - rule 'dual: fix variable' was applied 8 times.
2025-09-15 04:02:58,918 | INFO | [phase1]   - rule 'dual: reduced domain' was applied 39 times.
2025-09-15 04:02:58,920 | INFO | [phase1]   - rule 'duplicate: removed constraint' was applied 403 times.
2025-09-15 04:02:58,930 | INFO | [phase1]   - rule 'exactly_one: removed literals' was applied 308 times.
2025-09-15 04:02:58,941 | INFO | [phase1]   - rule 'exactly_one: singleton' was applied 308 times.
2025-09-15 04:02:58,942 | INFO | [phase1]   - rule 'int_prod: boolean affine term' was applied 38 times.
2025-09-15 04:02:58,950 | INFO | [phase1]   - rule 'int_square: reduced target domain.' was applied 589 times.
2025-09-15 04:02:58,954 | INFO | [phase1]   - rule 'lin_max: affine_max target domain reduced' was applied 19 times.
2025-09-15 04:02:58,956 | INFO | [phase1]   - rule 'lin_max: fixed affine_max target' was applied 8 times.
2025-09-15 04:02:58,963 | INFO | [phase1]   - rule 'lin_max: unused affine target' was applied 8 times.
2025-09-15 04:02:58,964 | INFO | [phase1]   - rule 'linear matrix: common horizontal rectangle' was applied 9 times.
2025-09-15 04:02:58,966 | INFO | [phase1]   - rule 'linear1: x in domain' was applied 2'327 times.
2025-09-15 04:02:58,968 | INFO | [phase1]   - rule 'linear: always true' was applied 2'341 times.
2025-09-15 04:02:58,970 | INFO | [phase1]   - rule 'linear: enforcement literal in expression' was applied 57 times.
2025-09-15 04:02:58,971 | INFO | [phase1]   - rule 'linear: fixed or dup variables' was applied 3'268 times.
2025-09-15 04:02:58,997 | INFO | [phase1]   - rule 'linear: negative clause' was applied 4'701 times.
2025-09-15 04:02:59,008 | INFO | [phase1]   - rule 'linear: positive clause' was applied 1'166 times.
2025-09-15 04:02:59,013 | INFO | [phase1]   - rule 'linear: positive equal one' was applied 308 times.
2025-09-15 04:02:59,016 | INFO | [phase1]   - rule 'linear: reduced variable domains' was applied 19 times.
2025-09-15 04:02:59,024 | INFO | [phase1]   - rule 'linear: remapped using affine relations' was applied 108 times.
2025-09-15 04:02:59,026 | INFO | [phase1]   - rule 'linear: singleton column' was applied 19 times.
2025-09-15 04:02:59,029 | INFO | [phase1]   - rule 'linear: small Boolean expression' was applied 38 times.
2025-09-15 04:02:59,039 | INFO | [phase1]   - rule 'linear: variable substitution 0' was applied 1 time.
2025-09-15 04:02:59,040 | INFO | [phase1]   - rule 'linear: variable substitution 1' was applied 17 times.
2025-09-15 04:02:59,041 | INFO | [phase1]   - rule 'objective: expanded via tight equality' was applied 285 times.
2025-09-15 04:02:59,048 | INFO | [phase1]   - rule 'presolve: 2363 unused variables removed.' was applied 1 time.
2025-09-15 04:02:59,050 | INFO | [phase1]   - rule 'presolve: iteration' was applied 2 times.
2025-09-15 04:02:59,052 | INFO | [phase1]   - rule 'setppc: bool_or in at_most_one.' was applied 409 times.
2025-09-15 04:02:59,056 | INFO | [phase1]   - rule 'variables: both boolean and its negation fix the same variable' was applied 19 times.
2025-09-15 04:02:59,063 | INFO | [phase1]   - rule 'variables: detect half reified value encoding' was applied 1'197 times.
2025-09-15 04:02:59,096 | INFO | [phase1] 
2025-09-15 04:02:59,137 | INFO | [phase1] Presolved optimization model '': (model_fingerprint: 0xba486c6edd337a04)
#Variables: 7'051 (#bools: 868 #ints: 39 in objective) (5'452 primary variables)
  - 4'712 Booleans in [0,1]
  - 102 different domains in [-20,29791] with a largest complexity of 31.
#kAtMostOne: 1'440 (#literals: 8'849)
#kBoolAnd: 1'145 (#enforced: 1'145) (#literals: 2'290)
#kBoolOr: 757 (#literals: 2'878)
#kExactlyOne: 409 (#literals: 3'235)
#kIntProd: 1'140
#kLinMax: 22 (#expressions: 363)
#kLinear1: 1'729 (#enforced: 1'729 #multi: 589)
#kLinear2: 1'150 (#enforced: 1'121 #multi: 551)
#kLinearN: 38 (#terms: 4'154)
2025-09-15 04:02:59,148 | INFO | [phase1] 
2025-09-15 04:02:59,150 | INFO | [phase1] Preloading model.
2025-09-15 04:02:59,151 | INFO | [phase1] #Bound   4.63s best:inf   next:[-11060,8605] initial_domain
2025-09-15 04:02:59,185 | INFO | [phase1] #Model   4.67s var:7051/7051 constraints:7830/7830
2025-09-15 04:02:59,192 | INFO | [phase1] 
2025-09-15 04:02:59,192 | INFO | [phase1] Starting search at 4.67s with 8 workers.
2025-09-15 04:02:59,196 | INFO | [phase1] 6 full problem subsolvers: [core, default_lp, max_lp, no_lp, quick_restart, reduced_costs]
2025-09-15 04:02:59,197 | INFO | [phase1] 2 first solution subsolvers: [fj, fs_random_no_lp]
2025-09-15 04:02:59,198 | INFO | [phase1] 9 interleaved subsolvers: [feasibility_pump, graph_arc_lns, graph_cst_lns, graph_dec_lns, graph_var_lns, ls, rins/rens, rnd_cst_lns, rnd_var_lns]
2025-09-15 04:02:59,200 | INFO | [phase1] 3 helper subsolvers: [neighborhood_helper, synchronization_agent, update_gap_integral]
2025-09-15 04:02:59,201 | INFO | [phase1] 
2025-09-15 04:02:59,604 | INFO | [phase1] #1       5.09s best:6323  next:[-11060,6322] fj_restart(batch:1 lin{mvs:15 evals:279} gen{mvs:11 evals:284} #w_updates:1 #perturb:0)
2025-09-15 04:03:00,055 | INFO | [phase1] #2       5.54s best:6201  next:[-11060,6200] rnd_var_lns (d=5.00e-01 s=9 t=0.10 p=0.00 stall=0 h=base) [hint]
2025-09-15 04:03:00,537 | INFO | [phase1] #3       6.02s best:5983  next:[-11060,5982] rnd_cst_lns (d=5.00e-01 s=10 t=0.10 p=0.00 stall=0 h=base)
2025-09-15 04:03:00,846 | INFO | [phase1] #Bound   6.33s best:5983  next:[-1940,5982] quick_restart (initial_propagation)
2025-09-15 04:03:00,906 | INFO | [phase1] #Bound   6.39s best:5983  next:[-1931,5982] default_lp
2025-09-15 04:03:00,944 | INFO | [phase1] #Bound   6.42s best:5983  next:[-1749,5982] quick_restart
2025-09-15 04:03:01,011 | INFO | [phase1] #Bound   6.49s best:5983  next:[-1553,5982] quick_restart
2025-09-15 04:03:01,105 | INFO | [phase1] #Bound   6.59s best:5983  next:[-922,5982] quick_restart
2025-09-15 04:03:01,318 | INFO | [phase1] #Bound   6.80s best:5983  next:[-220,5982] quick_restart
2025-09-15 04:03:01,369 | INFO | [phase1] #4       6.83s best:5923  next:[-220,5922] graph_cst_lns (d=5.00e-01 s=13 t=0.10 p=0.00 stall=0 h=base)
2025-09-15 04:03:03,264 | INFO | [phase1] #5       8.74s best:5124  next:[-220,5123] graph_dec_lns (d=5.00e-01 s=14 t=0.10 p=0.00 stall=0 h=base)
2025-09-15 04:03:03,785 | INFO | [phase1] #Bound   9.27s best:5124  next:[-20,5123] default_lp
2025-09-15 04:03:05,418 | INFO | [phase1] #Bound  10.90s best:5124  next:[0,5123]   default_lp
2025-09-15 04:03:07,607 | INFO | [phase1] #6      13.09s best:4011  next:[0,4010]   rins_lp_lns (d=5.00e-01 s=15 t=0.10 p=0.00 stall=0 h=base)
2025-09-15 04:03:07,879 | INFO | [phase1] #7      13.36s best:3991  next:[0,3990]   ls_restart_decay(batch:1 lin{mvs:3 evals:782} #w_updates:0 #perturb:0)
2025-09-15 04:03:07,942 | INFO | [phase1] #8      13.42s best:3970  next:[0,3969]   ls_restart(batch:1 lin{mvs:13 evals:1'056} gen{mvs:2 evals:6} #w_updates:9 #perturb:0)
2025-09-15 04:03:08,975 | INFO | [phase1] #9      14.46s best:3969  next:[0,3968]   ls_restart_decay_compound_perturb(batch:1 lin{mvs:0 evals:1'685} gen{mvs:13 evals:26} comp{mvs:11 btracks:1} #w_updates:0 #perturb:0)
2025-09-15 04:03:09,037 | INFO | [phase1] #10     14.52s best:3948  next:[0,3947]   ls_restart_decay_compound_perturb(batch:1 lin{mvs:0 evals:1'900} gen{mvs:23 evals:35} comp{mvs:11 btracks:6} #w_updates:0 #perturb:0)
2025-09-15 04:03:09,473 | INFO | [phase1] #11     14.95s best:1492  next:[0,1491]   no_lp
2025-09-15 04:03:10,791 | INFO | [phase1] #12     16.27s best:614   next:[0,613]    no_lp
2025-09-15 04:03:11,575 | INFO | [phase1] #13     17.06s best:594   next:[0,593]    no_lp
2025-09-15 04:03:13,404 | INFO | [phase1] #14     18.88s best:365   next:[0,364]    no_lp
2025-09-15 04:03:14,023 | INFO | [phase1] #15     19.50s best:364   next:[0,363]    ls_restart(batch:1 lin{mvs:366 evals:2'611} gen{mvs:2 evals:3} #w_updates:344 #perturb:0)
2025-09-15 04:03:18,704 | INFO | [phase1] #16     24.18s best:344   next:[0,343]    graph_var_lns (d=7.07e-01 s=23 t=0.10 p=1.00 stall=0 h=base)
2025-09-15 04:03:24,293 | INFO | [phase1] #17     29.77s best:36    next:[0,35]     reduced_costs
